p cnf 834 596
c p distribution  0.875 0.125
c p distribution  0.875 0.125
c p distribution  0.875 0.125
c p distribution  0.875 0.125
c p distribution  0.875 0.125
c p distribution  0.875 0.125
c p distribution  0.875 0.125
c p distribution  0.875 0.125
c p distribution  0.875 0.125
c p distribution  0.875 0.125
c p distribution  0.875 0.125
c p distribution  0.875 0.125
c p distribution  0.875 0.125
c p distribution  0.875 0.125
c p distribution  0.875 0.125
c p distribution  0.875 0.125
c p distribution  0.875 0.125
c p distribution  0.875 0.125
c p distribution  0.875 0.125
c p distribution  0.875 0.125
c p distribution  0.875 0.125
c p distribution  0.875 0.125
c p distribution  0.875 0.125
c p distribution  0.875 0.125
c p distribution  0.875 0.125
c p distribution  0.875 0.125
c p distribution  0.875 0.125
c p distribution  0.875 0.125
c p distribution  0.875 0.125
c p distribution  0.875 0.125
c p distribution  0.875 0.125
c p distribution  0.875 0.125
c p distribution  0.875 0.125
c p distribution  0.875 0.125
c p distribution  0.875 0.125
c p distribution  0.875 0.125
c p distribution  0.875 0.125
c p distribution  0.875 0.125
c p distribution  0.875 0.125
c p distribution  0.875 0.125
c p distribution  0.875 0.125
c p distribution  0.875 0.125
c p distribution  0.875 0.125
c p distribution  0.875 0.125
c p distribution  0.875 0.125
c p distribution  0.875 0.125
c p distribution  0.875 0.125
c p distribution  0.875 0.125
c p distribution  0.875 0.125
c p distribution  0.875 0.125
c p distribution  0.875 0.125
c p distribution  0.875 0.125
c p distribution  0.875 0.125
c p distribution  0.875 0.125
c p distribution  0.875 0.125
c p distribution  0.875 0.125
c p distribution  0.875 0.125
c p distribution  0.875 0.125
c p distribution  0.875 0.125
c p distribution  0.875 0.125
c p distribution  0.875 0.125
c p distribution  0.875 0.125
c p distribution  0.875 0.125
c p distribution  0.875 0.125
c p distribution  0.875 0.125
c p distribution  0.875 0.125
c p distribution  0.875 0.125
c p distribution  0.875 0.125
c p distribution  0.875 0.125
c p distribution  0.875 0.125
c p distribution  0.875 0.125
c p distribution  0.875 0.125
c p distribution  0.875 0.125
c p distribution  0.875 0.125
c p distribution  0.875 0.125
c p distribution  0.875 0.125
c p distribution  0.875 0.125
c p distribution  0.875 0.125
c p distribution  0.875 0.125
c p distribution  0.875 0.125
c p distribution  0.875 0.125
c p distribution  0.875 0.125
c p distribution  0.875 0.125
c p distribution  0.875 0.125
c p distribution  0.875 0.125
c p distribution  0.875 0.125
c p distribution  0.875 0.125
c p distribution  0.875 0.125
c p distribution  0.875 0.125
c p distribution  0.875 0.125
c p distribution  0.875 0.125
c p distribution  0.875 0.125
c p distribution  0.875 0.125
c p distribution  0.875 0.125
c p distribution  0.875 0.125
c p distribution  0.875 0.125
c p distribution  0.875 0.125
c p distribution  0.875 0.125
c p distribution  0.875 0.125
c p distribution  0.875 0.125
c p distribution  0.875 0.125
c p distribution  0.875 0.125
c p distribution  0.875 0.125
c p distribution  0.875 0.125
c p distribution  0.875 0.125
c p distribution  0.875 0.125
c p distribution  0.875 0.125
c p distribution  0.875 0.125
c p distribution  0.875 0.125
c p distribution  0.875 0.125
c p distribution  0.875 0.125
c p distribution  0.875 0.125
c p distribution  0.875 0.125
c p distribution  0.875 0.125
c p distribution  0.875 0.125
c p distribution  0.875 0.125
c p distribution  0.875 0.125
c p distribution  0.875 0.125
c p distribution  0.875 0.125
c p distribution  0.875 0.125
c p distribution  0.875 0.125
c p distribution  0.875 0.125
c p distribution  0.875 0.125
c p distribution  0.875 0.125
c p distribution  0.875 0.125
c p distribution  0.875 0.125
c p distribution  0.875 0.125
c p distribution  0.875 0.125
c p distribution  0.875 0.125
c p distribution  0.875 0.125
c p distribution  0.875 0.125
c p distribution  0.875 0.125
c p distribution  0.875 0.125
c p distribution  0.875 0.125
c p distribution  0.875 0.125
c p distribution  0.875 0.125
c p distribution  0.875 0.125
c p distribution  0.875 0.125
c p distribution  0.875 0.125
c p distribution  0.875 0.125
c p distribution  0.875 0.125
c p distribution  0.875 0.125
c p distribution  0.875 0.125
c p distribution  0.875 0.125
c p distribution  0.875 0.125
c p distribution  0.875 0.125
c p distribution  0.875 0.125
c p distribution  0.875 0.125
c p distribution  0.875 0.125
c p distribution  0.875 0.125
c p distribution  0.875 0.125
c p distribution  0.875 0.125
c p distribution  0.875 0.125
c p distribution  0.875 0.125
c p distribution  0.875 0.125
c p distribution  0.875 0.125
c p distribution  0.875 0.125
c p distribution  0.875 0.125
c p distribution  0.875 0.125
c p distribution  0.875 0.125
c p distribution  0.875 0.125
c p distribution  0.875 0.125
c p distribution  0.875 0.125
c p distribution  0.875 0.125
c p distribution  0.875 0.125
c p distribution  0.875 0.125
c p distribution  0.875 0.125
c p distribution  0.875 0.125
c p distribution  0.875 0.125
c p distribution  0.875 0.125
c p distribution  0.875 0.125
c p distribution  0.875 0.125
c p distribution  0.875 0.125
c p distribution  0.875 0.125
c p distribution  0.875 0.125
c p distribution  0.875 0.125
c p distribution  0.875 0.125
c p distribution  0.875 0.125
c p distribution  0.875 0.125
c p distribution  0.875 0.125
c p distribution  0.875 0.125
c p distribution  0.875 0.125
c p distribution  0.875 0.125
c p distribution  0.875 0.125
c p distribution  0.875 0.125
c p distribution  0.875 0.125
c p distribution  0.875 0.125
c p distribution  0.875 0.125
c p distribution  0.875 0.125
c p distribution  0.875 0.125
c p distribution  0.875 0.125
c p distribution  0.875 0.125
c p distribution  0.875 0.125
c p distribution  0.875 0.125
c p distribution  0.875 0.125
c p distribution  0.875 0.125
c p distribution  0.875 0.125
c p distribution  0.875 0.125
c p distribution  0.875 0.125
c p distribution  0.875 0.125
c p distribution  0.875 0.125
c p distribution  0.875 0.125
c p distribution  0.875 0.125
c p distribution  0.875 0.125
c p distribution  0.875 0.125
c p distribution  0.875 0.125
c p distribution  0.875 0.125
c p distribution  0.875 0.125
c p distribution  0.875 0.125
c p distribution  0.875 0.125
c p distribution  0.875 0.125
c p distribution  0.875 0.125
c p distribution  0.875 0.125
c p distribution  0.875 0.125
c p distribution  0.875 0.125
c p distribution  0.875 0.125
c p distribution  0.875 0.125
c p distribution  0.875 0.125
c p distribution  0.875 0.125
c p distribution  0.875 0.125
c p distribution  0.875 0.125
c p distribution  0.875 0.125
c p distribution  0.875 0.125
c p distribution  0.875 0.125
c p distribution  0.875 0.125
c p distribution  0.875 0.125
c p distribution  0.875 0.125
c p distribution  0.875 0.125
c p distribution  0.875 0.125
c p distribution  0.875 0.125
c p distribution  0.875 0.125
c p distribution  0.875 0.125
c p distribution  0.875 0.125
c p distribution  0.875 0.125
c p distribution  0.875 0.125
c p distribution  0.875 0.125
c p distribution  0.875 0.125
c p distribution  0.875 0.125
c p distribution  0.875 0.125
c p distribution  0.875 0.125
c p distribution  0.875 0.125
c p distribution  0.875 0.125
c p distribution  0.875 0.125
c p distribution  0.875 0.125
c p distribution  0.875 0.125
c p distribution  0.875 0.125
c p distribution  0.875 0.125
c p distribution  0.875 0.125
c p distribution  0.875 0.125
c p distribution  0.875 0.125
c p distribution  0.875 0.125
c p distribution  0.875 0.125
c p distribution  0.875 0.125
c p distribution  0.875 0.125
c p distribution  0.875 0.125
c p distribution  0.875 0.125
c p distribution  0.875 0.125
c p distribution  0.875 0.125
c p distribution  0.875 0.125
c p distribution  0.875 0.125
c p distribution  0.875 0.125
c p distribution  0.875 0.125
c p distribution  0.875 0.125
c p distribution  0.875 0.125
c p distribution  0.875 0.125
c p distribution  0.875 0.125
c p distribution  0.875 0.125
c p distribution  0.875 0.125
c p distribution  0.875 0.125
c p distribution  0.875 0.125
c p distribution  0.875 0.125
c p distribution  0.875 0.125
c p distribution  0.875 0.125
c p distribution  0.875 0.125
c p distribution  0.875 0.125
c p distribution  0.875 0.125
c p distribution  0.875 0.125
c p distribution  0.875 0.125
c p distribution  0.875 0.125
c p distribution  0.875 0.125
c p distribution  0.875 0.125
c p distribution  0.875 0.125
c p distribution  0.875 0.125
c p distribution  0.875 0.125
c p distribution  0.875 0.125
c p distribution  0.875 0.125
c p distribution  0.875 0.125
c p distribution  0.875 0.125
c p distribution  0.875 0.125
c p distribution  0.875 0.125
c p distribution  0.875 0.125
c p distribution  0.875 0.125
c p distribution  0.875 0.125
c p distribution  0.875 0.125
c p distribution  0.875 0.125
c p distribution  0.875 0.125
c p distribution  0.875 0.125
832 0
-652 0
597 -615 -1 0
615 -597 -1 0
633 -648 -3 0
648 -633 -3 0
703 -628 -5 0
628 -703 -5 0
733 -720 -7 0
720 -733 -7 0
639 -656 -9 0
656 -639 -9 0
804 -656 -11 0
656 -804 -11 0
653 -736 -13 0
736 -653 -13 0
697 -606 -15 0
606 -697 -15 0
680 -688 -17 0
688 -680 -17 0
804 -605 -19 0
605 -804 -19 0
748 -786 -21 0
786 -748 -21 0
680 -823 -23 0
823 -680 -23 0
793 -824 -25 0
824 -793 -25 0
595 -796 -27 0
796 -595 -27 0
772 -805 -29 0
805 -772 -29 0
743 -719 -31 0
719 -743 -31 0
782 -607 -33 0
607 -782 -33 0
727 -790 -35 0
790 -727 -35 0
674 -625 -37 0
625 -674 -37 0
809 -647 -39 0
647 -809 -39 0
643 -830 -41 0
830 -643 -41 0
681 -752 -43 0
752 -681 -43 0
689 -764 -45 0
764 -689 -45 0
779 -672 -47 0
672 -779 -47 0
611 -796 -49 0
796 -611 -49 0
751 -809 -51 0
809 -751 -51 0
630 -750 -53 0
750 -630 -53 0
607 -820 -55 0
820 -607 -55 0
732 -723 -57 0
723 -732 -57 0
716 -647 -59 0
647 -716 -59 0
615 -721 -61 0
721 -615 -61 0
672 -657 -63 0
657 -672 -63 0
775 -750 -65 0
750 -775 -65 0
597 -705 -67 0
705 -597 -67 0
792 -693 -69 0
693 -792 -69 0
753 -825 -71 0
825 -753 -71 0
634 -723 -73 0
723 -634 -73 0
705 -597 -75 0
597 -705 -75 0
806 -707 -77 0
707 -806 -77 0
816 -775 -79 0
775 -816 -79 0
700 -748 -81 0
748 -700 -81 0
728 -716 -83 0
716 -728 -83 0
807 -714 -85 0
714 -807 -85 0
651 -734 -87 0
734 -651 -87 0
644 -783 -89 0
783 -644 -89 0
597 -802 -91 0
802 -597 -91 0
799 -766 -93 0
766 -799 -93 0
610 -829 -95 0
829 -610 -95 0
668 -759 -97 0
759 -668 -97 0
744 -683 -99 0
683 -744 -99 0
700 -786 -101 0
786 -700 -101 0
679 -634 -103 0
634 -679 -103 0
774 -776 -105 0
776 -774 -105 0
627 -602 -107 0
602 -627 -107 0
608 -788 -109 0
788 -608 -109 0
655 -628 -111 0
628 -655 -111 0
668 -759 -113 0
759 -668 -113 0
628 -617 -115 0
617 -628 -115 0
740 -707 -117 0
707 -740 -117 0
668 -759 -119 0
759 -668 -119 0
821 -636 -121 0
636 -821 -121 0
785 -834 -123 0
834 -785 -123 0
833 -770 -125 0
770 -833 -125 0
646 -710 -127 0
710 -646 -127 0
706 -615 -129 0
615 -706 -129 0
671 -769 -131 0
769 -671 -131 0
717 -752 -133 0
752 -717 -133 0
740 -784 -135 0
784 -740 -135 0
678 -786 -137 0
786 -678 -137 0
819 -710 -139 0
710 -819 -139 0
824 -697 -141 0
697 -824 -141 0
789 -600 -143 0
600 -789 -143 0
732 -767 -145 0
767 -732 -145 0
763 -818 -147 0
818 -763 -147 0
806 -659 -149 0
659 -806 -149 0
697 -745 -151 0
745 -697 -151 0
834 -799 -153 0
799 -834 -153 0
677 -800 -155 0
800 -677 -155 0
743 -663 -157 0
663 -743 -157 0
828 -681 -159 0
681 -828 -159 0
776 -708 -161 0
708 -776 -161 0
801 -811 -163 0
811 -801 -163 0
765 -715 -165 0
715 -765 -165 0
763 -608 -167 0
608 -763 -167 0
831 -614 -169 0
614 -831 -169 0
726 -684 -171 0
684 -726 -171 0
753 -729 -173 0
729 -753 -173 0
749 -793 -175 0
793 -749 -175 0
620 -776 -177 0
776 -620 -177 0
771 -605 -179 0
605 -771 -179 0
638 -778 -181 0
778 -638 -181 0
828 -718 -183 0
718 -828 -183 0
740 -832 -185 0
832 -740 -185 0
668 -759 -187 0
759 -668 -187 0
701 -756 -189 0
756 -701 -189 0
779 -657 -191 0
657 -779 -191 0
641 -737 -193 0
737 -641 -193 0
613 -614 -195 0
614 -613 -195 0
671 -730 -197 0
730 -671 -197 0
668 -764 -199 0
764 -668 -199 0
748 -796 -201 0
796 -748 -201 0
653 -813 -203 0
813 -653 -203 0
671 -780 -205 0
780 -671 -205 0
783 -739 -207 0
739 -783 -207 0
712 -771 -209 0
771 -712 -209 0
703 -762 -211 0
762 -703 -211 0
708 -711 -213 0
711 -708 -213 0
673 -827 -215 0
827 -673 -215 0
664 -801 -217 0
801 -664 -217 0
696 -651 -219 0
651 -696 -219 0
721 -626 -221 0
626 -721 -221 0
633 -666 -223 0
666 -633 -223 0
652 -755 -225 0
755 -652 -225 0
804 -793 -227 0
793 -804 -227 0
817 -822 -229 0
822 -817 -229 0
596 -622 -231 0
622 -596 -231 0
722 -779 -233 0
779 -722 -233 0
781 -799 -235 0
799 -781 -235 0
817 -745 -237 0
745 -817 -237 0
712 -821 -239 0
821 -712 -239 0
724 -616 -241 0
616 -724 -241 0
739 -829 -243 0
829 -739 -243 0
737 -603 -245 0
603 -737 -245 0
630 -633 -247 0
633 -630 -247 0
637 -831 -249 0
831 -637 -249 0
671 -621 -251 0
621 -671 -251 0
731 -675 -253 0
675 -731 -253 0
827 -669 -255 0
669 -827 -255 0
784 -787 -257 0
787 -784 -257 0
698 -754 -259 0
754 -698 -259 0
819 -646 -261 0
646 -819 -261 0
637 -688 -263 0
688 -637 -263 0
626 -721 -265 0
721 -626 -265 0
752 -790 -267 0
790 -752 -267 0
743 -792 -269 0
792 -743 -269 0
641 -806 -271 0
806 -641 -271 0
826 -718 -273 0
718 -826 -273 0
595 -700 -275 0
700 -595 -275 0
622 -662 -277 0
662 -622 -277 0
818 -747 -279 0
747 -818 -279 0
638 -819 -281 0
819 -638 -281 0
825 -810 -283 0
810 -825 -283 0
629 -674 -285 0
674 -629 -285 0
710 -778 -287 0
778 -710 -287 0
811 -732 -289 0
732 -811 -289 0
788 -668 -291 0
668 -788 -291 0
711 -692 -293 0
692 -711 -293 0
732 -634 -295 0
634 -732 -295 0
728 -741 -297 0
741 -728 -297 0
679 -599 -299 0
599 -679 -299 0
618 -723 -301 0
723 -618 -301 0
785 -834 -303 0
834 -785 -303 0
800 -677 -305 0
677 -800 -305 0
606 -822 -307 0
822 -606 -307 0
824 -635 -309 0
635 -824 -309 0
808 -766 -311 0
766 -808 -311 0
832 -672 -313 0
672 -832 -313 0
768 -822 -315 0
822 -768 -315 0
620 -830 -317 0
830 -620 -317 0
637 -658 -319 0
658 -637 -319 0
708 -784 -321 0
784 -708 -321 0
713 -803 -323 0
803 -713 -323 0
611 -595 -325 0
595 -611 -325 0
691 -693 -327 0
693 -691 -327 0
816 -612 -329 0
612 -816 -329 0
732 -770 -331 0
770 -732 -331 0
808 -766 -333 0
766 -808 -333 0
618 -723 -335 0
723 -618 -335 0
623 -723 -337 0
723 -623 -337 0
812 -811 -339 0
811 -812 -339 0
598 -790 -341 0
790 -598 -341 0
814 -749 -343 0
749 -814 -343 0
666 -669 -345 0
669 -666 -345 0
609 -628 -347 0
628 -609 -347 0
785 -834 -349 0
834 -785 -349 0
610 -739 -351 0
739 -610 -351 0
639 -824 -353 0
824 -639 -353 0
686 -715 -355 0
715 -686 -355 0
667 -662 -357 0
662 -667 -357 0
674 -791 -359 0
791 -674 -359 0
614 -680 -361 0
680 -614 -361 0
691 -792 -363 0
792 -691 -363 0
771 -821 -365 0
821 -771 -365 0
719 -720 -367 0
720 -719 -367 0
757 -657 -369 0
657 -757 -369 0
695 -686 -371 0
686 -695 -371 0
601 -777 -373 0
777 -601 -373 0
763 -683 -375 0
683 -763 -375 0
630 -650 -377 0
650 -630 -377 0
695 -731 -379 0
731 -695 -379 0
696 -645 -381 0
645 -696 -381 0
805 -762 -383 0
762 -805 -383 0
785 -834 -385 0
834 -785 -385 0
691 -700 -387 0
700 -691 -387 0
745 -606 -389 0
606 -745 -389 0
683 -684 -391 0
684 -683 -391 0
629 -795 -393 0
795 -629 -393 0
762 -703 -395 0
703 -762 -395 0
686 -794 -397 0
794 -686 -397 0
778 -655 -399 0
655 -778 -399 0
637 -658 -401 0
658 -637 -401 0
746 -659 -403 0
659 -746 -403 0
666 -669 -405 0
669 -666 -405 0
643 -791 -407 0
791 -643 -407 0
703 -629 -409 0
629 -703 -409 0
760 -701 -411 0
701 -760 -411 0
602 -604 -413 0
604 -602 -413 0
689 -751 -415 0
751 -689 -415 0
788 -692 -417 0
692 -788 -417 0
640 -605 -419 0
605 -640 -419 0
643 -625 -421 0
625 -643 -421 0
668 -759 -423 0
759 -668 -423 0
665 -642 -425 0
642 -665 -425 0
733 -714 -427 0
714 -733 -427 0
725 -800 -429 0
800 -725 -429 0
650 -673 -431 0
673 -650 -431 0
705 -640 -433 0
640 -705 -433 0
814 -600 -435 0
600 -814 -435 0
813 -612 -437 0
612 -813 -437 0
602 -604 -439 0
604 -602 -439 0
639 -656 -441 0
656 -639 -441 0
626 -823 -443 0
823 -626 -443 0
676 -820 -445 0
820 -676 -445 0
726 -684 -447 0
684 -726 -447 0
748 -660 -449 0
660 -748 -449 0
791 -625 -451 0
625 -791 -451 0
607 -676 -453 0
676 -607 -453 0
784 -817 -455 0
817 -784 -455 0
616 -736 -457 0
736 -616 -457 0
632 -775 -459 0
775 -632 -459 0
820 -802 -461 0
802 -820 -461 0
601 -761 -463 0
761 -601 -463 0
816 -738 -465 0
738 -816 -465 0
704 -803 -467 0
803 -704 -467 0
619 -825 -469 0
825 -619 -469 0
623 -794 -471 0
794 -623 -471 0
654 -741 -473 0
741 -654 -473 0
799 -774 -475 0
774 -799 -475 0
834 -799 -477 0
799 -834 -477 0
744 -754 -479 0
754 -744 -479 0
787 -631 -481 0
631 -787 -481 0
642 -773 -483 0
773 -642 -483 0
702 -829 -485 0
829 -702 -485 0
598 -694 -487 0
694 -598 -487 0
780 -671 -489 0
671 -780 -489 0
637 -658 -491 0
658 -637 -491 0
772 -830 -493 0
830 -772 -493 0
774 -621 -495 0
621 -774 -495 0
623 -702 -497 0
702 -623 -497 0
688 -649 -499 0
649 -688 -499 0
780 -671 -501 0
671 -780 -501 0
663 -719 -503 0
719 -663 -503 0
642 -773 -505 0
773 -642 -505 0
685 -795 -507 0
795 -685 -507 0
758 -713 -509 0
713 -758 -509 0
709 -815 -511 0
815 -709 -511 0
695 -794 -513 0
794 -695 -513 0
730 -687 -515 0
687 -730 -515 0
619 -810 -517 0
810 -619 -517 0
742 -774 -519 0
774 -742 -519 0
720 -714 -521 0
714 -720 -521 0
667 -610 -523 0
610 -667 -523 0
684 -773 -525 0
773 -684 -525 0
668 -618 -527 0
618 -668 -527 0
782 -670 -529 0
670 -782 -529 0
770 -767 -531 0
767 -770 -531 0
648 -660 -533 0
660 -648 -533 0
727 -764 -535 0
764 -727 -535 0
807 -693 -537 0
693 -807 -537 0
797 -690 -539 0
690 -797 -539 0
738 -612 -541 0
612 -738 -541 0
717 -681 -543 0
681 -717 -543 0
663 -807 -545 0
807 -663 -545 0
782 -670 -547 0
670 -782 -547 0
832 -707 -549 0
707 -832 -549 0
632 -673 -551 0
673 -632 -551 0
796 -660 -553 0
660 -796 -553 0
671 -769 -555 0
769 -671 -555 0
735 -659 -557 0
659 -735 -557 0
755 -775 -559 0
775 -755 -559 0
637 -823 -561 0
823 -637 -561 0
759 -692 -563 0
692 -759 -563 0
640 -712 -565 0
712 -640 -565 0
697 -635 -567 0
635 -697 -567 0
637 -658 -569 0
658 -637 -569 0
758 -734 -571 0
734 -758 -571 0
737 -740 -573 0
740 -737 -573 0
679 -699 -575 0
699 -679 -575 0
798 -652 -577 0
652 -798 -577 0
704 -715 -579 0
715 -704 -579 0
653 -760 -581 0
760 -653 -581 0
676 -677 -583 0
677 -676 -583 0
693 -611 -585 0
611 -693 -585 0
749 -635 -587 0
635 -749 -587 0
769 -730 -589 0
730 -769 -589 0
662 -741 -591 0
741 -662 -591 0
785 -834 -593 0
834 -785 -593 0

